174 79 136 68 197 193 119 195 167 194 38 151 4 165 78 181 18 92 191 60 123 50 13 122 179 120 175 49 142 14 166 22 23 111 144 154 54 169 97 59 1 72 67 27 185 19 147 15 
129 51 131 126 36 12 177 35 81 162 103 153 172 56 164 66 157 96 186 196 75 69 48 127 128 101 71 163 87 109 83 180 189 121 112 31 39 52 53 99 33 94 140 155 132 145 115 190 104 
171 34 116 77 62 199 47 100 117 105 64 150 44 200 42 43 133 141 161 124 183 130 198 73 17 16 80 125 55 82 28 108 76 110 11 10 148 178 107 102 168 30 25 113 3 149 63 70 57 5 45 
41 74 8 61 152 65 139 118 184 21 32 135 134 170 90 29 9 37 98 106 173 156 24 40 114 159 182 46 85 86 
26 143 95 91 88 146 176 158 89 58 84 7 187 93 2 20 188 
192 137 6 138 160 

